NAME          DCAP_3_4_2_500_SS223
ROWS
 N  OBJ
 L  CON1
 L  CON2
 L  CON3
 L  CON4
 L  CON5
 L  CON6
 L  CON7
 L  CON8
 L  CON9
 L  CON10
 L  CON11
 L  CON12
 E  CON13
 E  CON14
 E  CON15
 E  CON16
 E  CON17
 E  CON18
 E  CON19
 E  CON20
COLUMNS
    x[1,1]    OBJ       6.180167      CON1      1.000000    
    x[1,1]    CON7      -1.000000     CON8      -1.000000   
    x[1,2]    OBJ       5.039546      CON2      1.000000    
    x[1,2]    CON8      -1.000000   
    x[2,1]    OBJ       6.732585      CON3      1.000000    
    x[2,1]    CON9      -1.000000     CON10     -1.000000   
    x[2,2]    OBJ       7.443064      CON4      1.000000    
    x[2,2]    CON10     -1.000000   
    x[3,1]    OBJ       6.563535      CON5      1.000000    
    x[3,1]    CON11     -1.000000     CON12     -1.000000   
    x[3,2]    OBJ       6.054841      CON6      1.000000    
    x[3,2]    CON12     -1.000000   
    MARKER    'MARKER'                'INTORG'
    u[1,1]    OBJ       48.076654     CON1      -1.000000   
    u[1,2]    OBJ       49.466655     CON2      -1.000000   
    u[2,1]    OBJ       49.996186     CON3      -1.000000   
    u[2,2]    OBJ       32.230043     CON4      -1.000000   
    u[3,1]    OBJ       20.066487     CON5      -1.000000   
    u[3,2]    OBJ       27.484319     CON6      -1.000000   
    y[1,1,1]  OBJ       5.936967      CON7      1.444105    
    y[1,1,1]  CON13     1.000000    
    y[1,1,2]  OBJ       6.393557      CON8      1.339413    
    y[1,1,2]  CON14     1.000000    
    y[1,2,1]  OBJ       9.992313      CON7      0.513044    
    y[1,2,1]  CON15     1.000000    
    y[1,2,2]  OBJ       6.633850      CON8      1.276044    
    y[1,2,2]  CON16     1.000000    
    y[1,3,1]  OBJ       5.700557      CON7      0.904780    
    y[1,3,1]  CON17     1.000000    
    y[1,3,2]  OBJ       5.345467      CON8      1.390473    
    y[1,3,2]  CON18     1.000000    
    y[1,4,1]  OBJ       7.337958      CON7      1.173348    
    y[1,4,1]  CON19     1.000000    
    y[1,4,2]  OBJ       7.667013      CON8      0.907651    
    y[1,4,2]  CON20     1.000000    
    y[2,1,1]  OBJ       6.303544      CON9      1.444105    
    y[2,1,1]  CON13     1.000000    
    y[2,1,2]  OBJ       5.765286      CON10     1.339413    
    y[2,1,2]  CON14     1.000000    
    y[2,2,1]  OBJ       5.940230      CON9      0.513044    
    y[2,2,1]  CON15     1.000000    
    y[2,2,2]  OBJ       5.631929      CON10     1.276044    
    y[2,2,2]  CON16     1.000000    
    y[2,3,1]  OBJ       8.432660      CON9      0.904780    
    y[2,3,1]  CON17     1.000000    
    y[2,3,2]  OBJ       9.459158      CON10     1.390473    
    y[2,3,2]  CON18     1.000000    
    y[2,4,1]  OBJ       6.268214      CON9      1.173348    
    y[2,4,1]  CON19     1.000000    
    y[2,4,2]  OBJ       5.908140      CON10     0.907651    
    y[2,4,2]  CON20     1.000000    
    y[3,1,1]  OBJ       5.010499      CON11     1.444105    
    y[3,1,1]  CON13     1.000000    
    y[3,1,2]  OBJ       9.354807      CON12     1.339413    
    y[3,1,2]  CON14     1.000000    
    y[3,2,1]  OBJ       7.180040      CON11     0.513044    
    y[3,2,1]  CON15     1.000000    
    y[3,2,2]  OBJ       6.123215      CON12     1.276044    
    y[3,2,2]  CON16     1.000000    
    y[3,3,1]  OBJ       7.893116      CON11     0.904780    
    y[3,3,1]  CON17     1.000000    
    y[3,3,2]  OBJ       8.825957      CON12     1.390473    
    y[3,3,2]  CON18     1.000000    
    y[3,4,1]  OBJ       6.095592      CON11     1.173348    
    y[3,4,1]  CON19     1.000000    
    y[3,4,2]  OBJ       7.263231      CON12     0.907651    
    y[3,4,2]  CON20     1.000000    
    z[1,1]    OBJ       906.633856    CON13     1.000000    
    z[1,2]    OBJ       912.923857    CON14     1.000000    
    z[2,1]    OBJ       913.012981    CON15     1.000000    
    z[2,2]    OBJ       800.714154    CON16     1.000000    
    z[3,1]    OBJ       830.928506    CON17     1.000000    
    z[3,2]    OBJ       724.209155    CON18     1.000000    
    z[4,1]    OBJ       936.964171    CON19     1.000000    
    z[4,2]    OBJ       659.063570    CON20     1.000000    
    MARKER    'MARKER'                 'INTEND'
RHS
    RHS       CON1      -0.000000     CON2      -0.000000   
    RHS       CON3      -0.000000     CON4      -0.000000   
    RHS       CON5      -0.000000     CON6      -0.000000   
    RHS       CON7      -0.000000     CON8      -0.000000   
    RHS       CON9      -0.000000     CON10     -0.000000   
    RHS       CON11     -0.000000     CON12     -0.000000   
    RHS       CON13     1.000000      CON14     1.000000    
    RHS       CON15     1.000000      CON16     1.000000    
    RHS       CON17     1.000000      CON18     1.000000    
    RHS       CON19     1.000000      CON20     1.000000    
BOUNDS
 BV BOUND     u[1,1]  
 BV BOUND     u[1,2]  
 BV BOUND     u[2,1]  
 BV BOUND     u[2,2]  
 BV BOUND     u[3,1]  
 BV BOUND     u[3,2]  
 BV BOUND     y[1,1,1]
 BV BOUND     y[1,1,2]
 BV BOUND     y[1,2,1]
 BV BOUND     y[1,2,2]
 BV BOUND     y[1,3,1]
 BV BOUND     y[1,3,2]
 BV BOUND     y[1,4,1]
 BV BOUND     y[1,4,2]
 BV BOUND     y[2,1,1]
 BV BOUND     y[2,1,2]
 BV BOUND     y[2,2,1]
 BV BOUND     y[2,2,2]
 BV BOUND     y[2,3,1]
 BV BOUND     y[2,3,2]
 BV BOUND     y[2,4,1]
 BV BOUND     y[2,4,2]
 BV BOUND     y[3,1,1]
 BV BOUND     y[3,1,2]
 BV BOUND     y[3,2,1]
 BV BOUND     y[3,2,2]
 BV BOUND     y[3,3,1]
 BV BOUND     y[3,3,2]
 BV BOUND     y[3,4,1]
 BV BOUND     y[3,4,2]
 BV BOUND     z[1,1]  
 BV BOUND     z[1,2]  
 BV BOUND     z[2,1]  
 BV BOUND     z[2,2]  
 BV BOUND     z[3,1]  
 BV BOUND     z[3,2]  
 BV BOUND     z[4,1]  
 BV BOUND     z[4,2]  
ENDATA
